samf/hales/sun/s9_4.in
32
-0.00014

